(declare-fun MEM!5 () Int)
(declare-fun ap!<9=inc/root>@2 () Int)
(declare-fun ap!<root>@3 () Int)
(declare-fun fp () Int)
(declare-fun fp!<root> () Int)
(declare-fun $n () Int)
(assert (let ((a!1 (not (= (mod (+ 3618502788666131213697322783095070105623107215331596699973092056135872020478
                           fp!<root>)
                        3618502788666131213697322783095070105623107215331596699973092056135872020481)
                   fp!<root>)))
      (a!3 (not (= (mod (+ 3618502788666131213697322783095070105623107215331596699973092056135872020478
                           fp!<root>)
                        3618502788666131213697322783095070105623107215331596699973092056135872020481)
                   (mod (+ 1 fp!<root>)
                        3618502788666131213697322783095070105623107215331596699973092056135872020481))))
      (a!4 (not (= (mod (+ 3618502788666131213697322783095070105623107215331596699973092056135872020478
                           fp!<root>)
                        3618502788666131213697322783095070105623107215331596699973092056135872020481)
                   (mod (+ 2 fp!<root>)
                        3618502788666131213697322783095070105623107215331596699973092056135872020481))))
      (a!5 (not (= (mod (+ 3618502788666131213697322783095070105623107215331596699973092056135872020478
                           fp!<root>)
                        3618502788666131213697322783095070105623107215331596699973092056135872020481)
                   (mod (+ 3618502788666131213697322783095070105623107215331596699973092056135872020478
                           fp)
                        3618502788666131213697322783095070105623107215331596699973092056135872020481))))
      (a!6 (not (= fp!<root>
                   (mod (+ 1 fp!<root>)
                        3618502788666131213697322783095070105623107215331596699973092056135872020481))))
      (a!8 (not (= fp!<root>
                   (mod (+ 2 fp!<root>)
                        3618502788666131213697322783095070105623107215331596699973092056135872020481))))
      (a!10 (not (= fp!<root>
                    (mod (+ 3618502788666131213697322783095070105623107215331596699973092056135872020478
                            fp)
                         3618502788666131213697322783095070105623107215331596699973092056135872020481))))
      (a!12 (not (= (mod (+ 1 fp!<root>)
                         3618502788666131213697322783095070105623107215331596699973092056135872020481)
                    (mod (+ 2 fp!<root>)
                         3618502788666131213697322783095070105623107215331596699973092056135872020481))))
      (a!13 (not (= (mod (+ 1 fp!<root>)
                         3618502788666131213697322783095070105623107215331596699973092056135872020481)
                    (mod (+ 3618502788666131213697322783095070105623107215331596699973092056135872020478
                            fp)
                         3618502788666131213697322783095070105623107215331596699973092056135872020481))))
      (a!14 (not (= (mod (+ 2 fp!<root>)
                         3618502788666131213697322783095070105623107215331596699973092056135872020481)
                    (mod (+ 3618502788666131213697322783095070105623107215331596699973092056135872020478
                            fp)
                         3618502788666131213697322783095070105623107215331596699973092056135872020481))))
      (a!15 (not (<= ap!<root>@3
                     (mod (+ 1 ap!<9=inc/root>@2)
                          3618502788666131213697322783095070105623107215331596699973092056135872020481))))
      (a!16 (exists (($n Int))
              (and (<= 0 $n)
                   (not (<= 3618502788666131213697322783095070105623107215331596699973092056135872020481
                            $n))
                   (= MEM!5 $n)))))
(let ((a!2 (or a!1
               (= $n
                  (mod (+ 1 $n)
                       3618502788666131213697322783095070105623107215331596699973092056135872020481))))
      (a!7 (or a!6
               (= (mod (+ 1 $n)
                       3618502788666131213697322783095070105623107215331596699973092056135872020481)
                  fp!<root>)))
      (a!9 (or a!8
               (= (mod (+ 1 $n)
                       3618502788666131213697322783095070105623107215331596699973092056135872020481)
                  11)))
      (a!11 (or a!10
                (= (mod (+ 1 $n)
                        3618502788666131213697322783095070105623107215331596699973092056135872020481)
                   MEM!5))))
  (and (<= 0 $n)
       (not (<= 3618502788666131213697322783095070105623107215331596699973092056135872020481
                $n))
       (<= 0 fp!<root>)
       (not (<= 3618502788666131213697322783095070105623107215331596699973092056135872020481
                fp!<root>))
       (<= 0 MEM!5)
       (not (<= 3618502788666131213697322783095070105623107215331596699973092056135872020481
                MEM!5))
       (<= 0 ap!<9=inc/root>@2)
       (not (<= 3618502788666131213697322783095070105623107215331596699973092056135872020481
                ap!<9=inc/root>@2))
       (<= 0 ap!<root>@3)
       (not (<= 3618502788666131213697322783095070105623107215331596699973092056135872020481
                ap!<root>@3))
       (<= 0 fp)
       (not (<= 3618502788666131213697322783095070105623107215331596699973092056135872020481
                fp))
       a!2
       (or a!3 (= $n fp!<root>))
       (or a!4 (= $n 11))
       (or a!5 (= $n MEM!5))
       a!7
       a!9
       a!11
       (or a!12 (= fp!<root> 11))
       (or a!13 (= fp!<root> MEM!5))
       (or a!14 (= 11 MEM!5))
       a!15
       (not a!16)))))
